p cnf 20 43
-8 18 0
8 -18 0
-8 7 0
-11 0
-4 14 0
4 -14 0
16 -6 0
-16 6 0
-6 15 0
6 -15 0
18 -1 -5 0
-18 1 0
-18 5 0
19 -5 0
-19 5 0
7 -9 0
-10 0
15 4 -5 0
-15 -4 0
-15 5 0
14 6 -5 0
-14 -6 0
-14 5 0
20 -1 0
-20 1 0
17 -2 0
-17 2 0
-9 19 20 0
9 -19 0
9 -20 0
-7 16 17 0
7 -16 0
7 -17 0
-2 12 0
2 -12 0
12 -1 3 0
-12 1 0
-12 -3 0
13 -1 2 0
-13 1 0
-13 -2 0
-3 13 0
3 -13 0
c p weight 1 0.4 0
c p weight -1 0.6 0
c p weight 2 (1.0,1.0) 0
c p weight -2 (0.0,1.0) 0
c p weight 3 (1.0,1.0) 0
c p weight -3 (1.0,1.0) 0
c p weight 4 (1.0,1.0) 0
c p weight -4 (1.0,1.0) 0
c p weight 5 0.4 0
c p weight -5 0.6 0
c p weight 6 (1.0,1.0) 0
c p weight -6 (1.0,1.0) 0
c p weight 7 (1.0,1.0) 0
c p weight -7 (1.0,1.0) 0
c p weight 8 (1.0,1.0) 0
c p weight -8 (1.0,1.0) 0
c p weight 9 (1.0,1.0) 0
c p weight -9 (1.0,1.0) 0
c p weight 10 (1.0,1.0) 0
c p weight -10 (1.0,1.0) 0
c p weight 11 (1.0,1.0) 0
c p weight -11 (1.0,1.0) 0
c p weight 12 (1.0,1.0) 0
c p weight -12 (1.0,1.0) 0
c p weight 13 (1.0,1.0) 0
c p weight -13 (1.0,1.0) 0
c p weight 14 (1.0,1.0) 0
c p weight -14 (1.0,1.0) 0
c p weight 15 (1.0,1.0) 0
c p weight -15 (1.0,1.0) 0
c p weight 16 (1.0,1.0) 0
c p weight -16 (1.0,1.0) 0
c p weight 17 (1.0,1.0) 0
c p weight -17 (1.0,1.0) 0
c p weight 18 (1.0,1.0) 0
c p weight -18 (1.0,1.0) 0
c p weight 19 (1.0,1.0) 0
c p weight -19 (1.0,1.0) 0
c p weight 20 (1.0,1.0) 0
c p weight -20 (1.0,1.0) 0
c p semirings aspmc.semirings.probabilistic aspmc.semirings.two_nat 0
c p transform lambda w : int(w[0] == w[1]) 0
c p quantify 1 5 0
c p quantify  0
c p auxilliary 10 11 12 13 14 15 16 17 18 19 20 0